Maximize
 obj: + x0 + x1 + x2 + x3 + x4 + x5 + x6 + x7 + x8 + x9 + x10 + x11 + x12 + x13 + x14 + x15 + x16 + x17 + x18 + x19 + x20 + x21 + x22 + x23 + x24 + x25 + x26 + x27 + x28 + x29 + x30 + x31 + x32 + x33 + x34 + x35 + x36 + x37 + x38 + x39 + x40 + x41 + x42 + x43 + x44 + x45 + x46 + x47 + x48 + x49 + x50 + x51 + x52 + x53 + x54 + x55 + x56 + x57 + x58 + x59 + x60 + x61 + x62 + x63
Subject To
c0:  +1 x0 <= 1
c1:  +1 x1 + x0 <= 1
c2:  +1 x2 + x0 + x1 <= 1
c3:  +1 x3 + x0 + x1 + x2 <= 1
c4:  +1 x4 + x0 + x1 + x2 + x3 <= 1
c5:  +1 x5 + x1 + x2 + x3 + x4 <= 1
c6:  +1 x6 + x2 + x3 + x4 + x5 <= 1
c7:  +1 x7 + x3 + x4 + x5 + x6 <= 1
c8:  +2 x8 + x0 + x1 + x2 + x3 + x4 + x5 + x6 + x7 <= 2
c9:  +2 x9 + x1 + x2 + x3 + x5 + x6 + x7 + x8 <= 2
c10:  +2 x10 + x2 + x3 + x6 + x7 + x8 + x9 <= 2
c11:  +1 x11 + x3 + x7 + x8 + x9 + x10 <= 1
c12:  +3 x12 + x0 + x1 + x2 + x3 + x4 + x5 + x6 + x7 + x8 + x9 + x10 + x11 <= 3
c13:  +3 x13 + x1 + x2 + x3 + x5 + x6 + x7 + x9 + x10 + x11 + x12 <= 3
c14:  +2 x14 + x2 + x3 + x6 + x7 + x10 + x11 + x12 + x13 <= 2
c15:  +1 x15 + x3 + x7 + x11 + x12 + x13 + x14 <= 1
c16:  +1 x16 + x0 + x1 + x2 + x3 + x4 + x8 + x12 <= 1
c17:  +2 x17 + x1 + x2 + x3 + x5 + x9 + x13 + x16 <= 2
c18:  +2 x18 + x2 + x3 + x6 + x10 + x14 + x16 + x17 <= 2
c19:  +2 x19 + x3 + x7 + x11 + x15 + x16 + x17 + x18 <= 2
c20:  +2 x20 + x4 + x5 + x6 + x7 + x8 + x12 + x16 + x17 + x18 + x19 <= 2
c21:  +2 x21 + x5 + x6 + x7 + x9 + x13 + x17 + x18 + x19 + x20 <= 2
c22:  +2 x22 + x6 + x7 + x10 + x14 + x18 + x19 + x20 + x21 <= 2
c23:  +2 x23 + x7 + x11 + x15 + x19 + x20 + x21 + x22 <= 2
c24:  +3 x24 + x8 + x9 + x10 + x11 + x12 + x16 + x17 + x18 + x19 + x20 + x21 + x22 + x23 <= 3
c25:  +3 x25 + x9 + x10 + x11 + x13 + x17 + x18 + x19 + x21 + x22 + x23 + x24 <= 3
c26:  +3 x26 + x10 + x11 + x14 + x18 + x19 + x22 + x23 + x24 + x25 <= 3
c27:  +2 x27 + x11 + x15 + x19 + x23 + x24 + x25 + x26 <= 2
c28:  +4 x28 + x12 + x13 + x14 + x15 + x16 + x17 + x18 + x19 + x20 + x21 + x22 + x23 + x24 + x25 + x26 + x27 <= 4
c29:  +4 x29 + x13 + x14 + x15 + x17 + x18 + x19 + x21 + x22 + x23 + x25 + x26 + x27 + x28 <= 4
c30:  +3 x30 + x14 + x15 + x18 + x19 + x22 + x23 + x26 + x27 + x28 + x29 <= 3
c31:  +1 x31 + x15 + x19 + x23 + x27 + x28 + x29 + x30 <= 1
c32:  +2 x32 + x0 + x1 + x2 + x3 + x4 + x8 + x12 + x16 + x17 + x18 + x19 + x20 + x24 + x28 <= 2
c33:  +3 x33 + x1 + x2 + x3 + x5 + x9 + x13 + x17 + x18 + x19 + x21 + x25 + x29 + x32 <= 3
c34:  +3 x34 + x2 + x3 + x6 + x10 + x14 + x18 + x19 + x22 + x26 + x30 + x32 + x33 <= 3
c35:  +3 x35 + x3 + x7 + x11 + x15 + x19 + x23 + x27 + x31 + x32 + x33 + x34 <= 3
c36:  +3 x36 + x4 + x5 + x6 + x7 + x8 + x12 + x20 + x21 + x22 + x23 + x24 + x28 + x32 + x33 + x34 + x35 <= 3
c37:  +3 x37 + x5 + x6 + x7 + x9 + x13 + x21 + x22 + x23 + x25 + x29 + x33 + x34 + x35 + x36 <= 3
c38:  +3 x38 + x6 + x7 + x10 + x14 + x22 + x23 + x26 + x30 + x34 + x35 + x36 + x37 <= 3
c39:  +3 x39 + x7 + x11 + x15 + x23 + x27 + x31 + x35 + x36 + x37 + x38 <= 3
c40:  +4 x40 + x8 + x9 + x10 + x11 + x12 + x24 + x25 + x26 + x27 + x28 + x32 + x33 + x34 + x35 + x36 + x37 + x38 + x39 <= 4
c41:  +4 x41 + x9 + x10 + x11 + x13 + x25 + x26 + x27 + x29 + x33 + x34 + x35 + x37 + x38 + x39 + x40 <= 4
c42:  +4 x42 + x10 + x11 + x14 + x26 + x27 + x30 + x34 + x35 + x38 + x39 + x40 + x41 <= 4
c43:  +3 x43 + x11 + x15 + x27 + x31 + x35 + x39 + x40 + x41 + x42 <= 3
c44:  +5 x44 + x12 + x13 + x14 + x15 + x28 + x29 + x30 + x31 + x32 + x33 + x34 + x35 + x36 + x37 + x38 + x39 + x40 + x41 + x42 + x43 <= 5
c45:  +5 x45 + x13 + x14 + x15 + x29 + x30 + x31 + x33 + x34 + x35 + x37 + x38 + x39 + x41 + x42 + x43 + x44 <= 5
c46:  +3 x46 + x14 + x15 + x30 + x31 + x34 + x35 + x38 + x39 + x42 + x43 + x44 + x45 <= 3
c47:  +1 x47 + x15 + x31 + x35 + x39 + x43 + x44 + x45 + x46 <= 1
c48:  +3 x48 + x0 + x1 + x2 + x3 + x4 + x8 + x12 + x16 + x17 + x18 + x19 + x20 + x24 + x28 + x32 + x33 + x34 + x35 + x36 + x40 + x44 <= 3
c49:  +4 x49 + x1 + x2 + x3 + x5 + x9 + x13 + x17 + x18 + x19 + x21 + x25 + x29 + x33 + x34 + x35 + x37 + x41 + x45 + x48 <= 4
c50:  +4 x50 + x2 + x3 + x6 + x10 + x14 + x18 + x19 + x22 + x26 + x30 + x34 + x35 + x38 + x42 + x46 + x48 + x49 <= 4
c51:  +4 x51 + x3 + x7 + x11 + x15 + x19 + x23 + x27 + x31 + x35 + x39 + x43 + x47 + x48 + x49 + x50 <= 4
c52:  +4 x52 + x4 + x5 + x6 + x7 + x8 + x12 + x20 + x21 + x22 + x23 + x24 + x28 + x36 + x37 + x38 + x39 + x40 + x44 + x48 + x49 + x50 + x51 <= 4
c53:  +4 x53 + x5 + x6 + x7 + x9 + x13 + x21 + x22 + x23 + x25 + x29 + x37 + x38 + x39 + x41 + x45 + x49 + x50 + x51 + x52 <= 4
c54:  +4 x54 + x6 + x7 + x10 + x14 + x22 + x23 + x26 + x30 + x38 + x39 + x42 + x46 + x50 + x51 + x52 + x53 <= 4
c55:  +4 x55 + x7 + x11 + x15 + x23 + x27 + x31 + x39 + x43 + x47 + x51 + x52 + x53 + x54 <= 4
c56:  +5 x56 + x8 + x9 + x10 + x11 + x12 + x24 + x25 + x26 + x27 + x28 + x40 + x41 + x42 + x43 + x44 + x48 + x49 + x50 + x51 + x52 + x53 + x54 + x55 <= 5
c57:  +5 x57 + x9 + x10 + x11 + x13 + x25 + x26 + x27 + x29 + x41 + x42 + x43 + x45 + x49 + x50 + x51 + x53 + x54 + x55 + x56 <= 5
c58:  +5 x58 + x10 + x11 + x14 + x26 + x27 + x30 + x42 + x43 + x46 + x50 + x51 + x54 + x55 + x56 + x57 <= 5
c59:  +3 x59 + x11 + x15 + x27 + x31 + x43 + x47 + x51 + x55 + x56 + x57 + x58 <= 3
c60:  +6 x60 + x12 + x13 + x14 + x15 + x28 + x29 + x30 + x31 + x44 + x45 + x46 + x47 + x48 + x49 + x50 + x51 + x52 + x53 + x54 + x55 + x56 + x57 + x58 + x59 <= 6
c61:  +5 x61 + x13 + x14 + x15 + x29 + x30 + x31 + x45 + x46 + x47 + x49 + x50 + x51 + x53 + x54 + x55 + x57 + x58 + x59 + x60 <= 5
c62:  +3 x62 + x14 + x15 + x30 + x31 + x46 + x47 + x50 + x51 + x54 + x55 + x58 + x59 + x60 + x61 <= 3
c63:  +1 x63 + x15 + x31 + x47 + x51 + x55 + x59 + x60 + x61 + x62 <= 1


c64:  +1 x0 + x1 + x2 + x3 + x4 + x8 + x12 + x16 + x32 + x48 <= 1
c65:  +2 x1 + x0 + x2 + x3 + x4 + x5 + x8 + x9 + x12 + x13 + x16 + x17 + x32 + x33 + x48 + x49 <= 2
c66:  +4 x2 + x0 + x1 + x3 + x4 + x5 + x6 + x8 + x9 + x10 + x12 + x13 + x14 + x16 + x17 + x18 + x32 + x33 + x34 + x48 + x49 + x50 <= 4
c67:  +6 x3 + x0 + x1 + x2 + x4 + x5 + x6 + x7 + x8 + x9 + x10 + x11 + x12 + x13 + x14 + x15 + x16 + x17 + x18 + x19 + x32 + x33 + x34 + x35 + x48 + x49 + x50 + x51 <= 6
c68:  +2 x4 + x0 + x1 + x2 + x3 + x5 + x6 + x7 + x8 + x12 + x16 + x20 + x32 + x36 + x48 + x52 <= 2
c69:  +5 x5 + x1 + x2 + x3 + x4 + x6 + x7 + x8 + x9 + x12 + x13 + x17 + x20 + x21 + x33 + x36 + x37 + x49 + x52 + x53 <= 5
c70:  +6 x6 + x2 + x3 + x4 + x5 + x7 + x8 + x9 + x10 + x12 + x13 + x14 + x18 + x20 + x21 + x22 + x34 + x36 + x37 + x38 + x50 + x52 + x53 + x54 <= 6
c71:  +6 x7 + x3 + x4 + x5 + x6 + x8 + x9 + x10 + x11 + x12 + x13 + x14 + x15 + x19 + x20 + x21 + x22 + x23 + x35 + x36 + x37 + x38 + x39 + x51 + x52 + x53 + x54 + x55 <= 6
c72:  +4 x8 + x0 + x1 + x2 + x3 + x4 + x5 + x6 + x7 + x9 + x10 + x11 + x12 + x16 + x20 + x24 + x32 + x36 + x40 + x48 + x52 + x56 <= 4
c73:  +6 x9 + x1 + x2 + x3 + x5 + x6 + x7 + x8 + x10 + x11 + x12 + x13 + x17 + x21 + x24 + x25 + x33 + x37 + x40 + x41 + x49 + x53 + x56 + x57 <= 6
c74:  +5 x10 + x2 + x3 + x6 + x7 + x8 + x9 + x11 + x12 + x13 + x14 + x18 + x22 + x24 + x25 + x26 + x34 + x38 + x40 + x41 + x42 + x50 + x54 + x56 + x57 + x58 <= 5
c75:  +5 x11 + x3 + x7 + x8 + x9 + x10 + x12 + x13 + x14 + x15 + x19 + x23 + x24 + x25 + x26 + x27 + x35 + x39 + x40 + x41 + x42 + x43 + x51 + x55 + x56 + x57 + x58 + x59 <= 5
c76:  +6 x12 + x0 + x1 + x2 + x3 + x4 + x5 + x6 + x7 + x8 + x9 + x10 + x11 + x13 + x14 + x15 + x16 + x20 + x24 + x28 + x32 + x36 + x40 + x44 + x48 + x52 + x56 + x60 <= 6
c77:  +6 x13 + x1 + x2 + x3 + x5 + x6 + x7 + x9 + x10 + x11 + x12 + x14 + x15 + x17 + x21 + x25 + x28 + x29 + x33 + x37 + x41 + x44 + x45 + x49 + x53 + x57 + x60 + x61 <= 6
c78:  +5 x14 + x2 + x3 + x6 + x7 + x10 + x11 + x12 + x13 + x15 + x18 + x22 + x26 + x28 + x29 + x30 + x34 + x38 + x42 + x44 + x45 + x46 + x50 + x54 + x58 + x60 + x61 + x62 <= 5
c79:  +4 x15 + x3 + x7 + x11 + x12 + x13 + x14 + x19 + x23 + x27 + x28 + x29 + x30 + x31 + x35 + x39 + x43 + x44 + x45 + x46 + x47 + x51 + x55 + x59 + x60 + x61 + x62 + x63 <= 4
c80:  +2 x16 + x0 + x1 + x2 + x3 + x4 + x8 + x12 + x17 + x18 + x19 + x20 + x24 + x28 + x32 + x48 <= 2
c81:  +3 x17 + x1 + x2 + x3 + x5 + x9 + x13 + x16 + x18 + x19 + x20 + x21 + x24 + x25 + x28 + x29 + x32 + x33 + x48 + x49 <= 3
c82:  +5 x18 + x2 + x3 + x6 + x10 + x14 + x16 + x17 + x19 + x20 + x21 + x22 + x24 + x25 + x26 + x28 + x29 + x30 + x32 + x33 + x34 + x48 + x49 + x50 <= 5
c83:  +7 x19 + x3 + x7 + x11 + x15 + x16 + x17 + x18 + x20 + x21 + x22 + x23 + x24 + x25 + x26 + x27 + x28 + x29 + x30 + x31 + x32 + x33 + x34 + x35 + x48 + x49 + x50 + x51 <= 7
c84:  +3 x20 + x4 + x5 + x6 + x7 + x8 + x12 + x16 + x17 + x18 + x19 + x21 + x22 + x23 + x24 + x28 + x32 + x36 + x48 + x52 <= 3
c85:  +5 x21 + x5 + x6 + x7 + x9 + x13 + x17 + x18 + x19 + x20 + x22 + x23 + x24 + x25 + x28 + x29 + x33 + x36 + x37 + x49 + x52 + x53 <= 5
c86:  +6 x22 + x6 + x7 + x10 + x14 + x18 + x19 + x20 + x21 + x23 + x24 + x25 + x26 + x28 + x29 + x30 + x34 + x36 + x37 + x38 + x50 + x52 + x53 + x54 <= 6
c87:  +6 x23 + x7 + x11 + x15 + x19 + x20 + x21 + x22 + x24 + x25 + x26 + x27 + x28 + x29 + x30 + x31 + x35 + x36 + x37 + x38 + x39 + x51 + x52 + x53 + x54 + x55 <= 6
c88:  +5 x24 + x8 + x9 + x10 + x11 + x12 + x16 + x17 + x18 + x19 + x20 + x21 + x22 + x23 + x25 + x26 + x27 + x28 + x32 + x36 + x40 + x48 + x52 + x56 <= 5
c89:  +6 x25 + x9 + x10 + x11 + x13 + x17 + x18 + x19 + x21 + x22 + x23 + x24 + x26 + x27 + x28 + x29 + x33 + x37 + x40 + x41 + x49 + x53 + x56 + x57 <= 6
c90:  +5 x26 + x10 + x11 + x14 + x18 + x19 + x22 + x23 + x24 + x25 + x27 + x28 + x29 + x30 + x34 + x38 + x40 + x41 + x42 + x50 + x54 + x56 + x57 + x58 <= 5
c91:  +5 x27 + x11 + x15 + x19 + x23 + x24 + x25 + x26 + x28 + x29 + x30 + x31 + x35 + x39 + x40 + x41 + x42 + x43 + x51 + x55 + x56 + x57 + x58 + x59 <= 5
c92:  +7 x28 + x12 + x13 + x14 + x15 + x16 + x17 + x18 + x19 + x20 + x21 + x22 + x23 + x24 + x25 + x26 + x27 + x29 + x30 + x31 + x32 + x36 + x40 + x44 + x48 + x52 + x56 + x60 <= 7
c93:  +6 x29 + x13 + x14 + x15 + x17 + x18 + x19 + x21 + x22 + x23 + x25 + x26 + x27 + x28 + x30 + x31 + x33 + x37 + x41 + x44 + x45 + x49 + x53 + x57 + x60 + x61 <= 6
c94:  +5 x30 + x14 + x15 + x18 + x19 + x22 + x23 + x26 + x27 + x28 + x29 + x31 + x34 + x38 + x42 + x44 + x45 + x46 + x50 + x54 + x58 + x60 + x61 + x62 <= 5
c95:  +3 x31 + x15 + x19 + x23 + x27 + x28 + x29 + x30 + x35 + x39 + x43 + x44 + x45 + x46 + x47 + x51 + x55 + x59 + x60 + x61 + x62 + x63 <= 3
c96:  +3 x32 + x0 + x1 + x2 + x3 + x4 + x8 + x12 + x16 + x17 + x18 + x19 + x20 + x24 + x28 + x33 + x34 + x35 + x36 + x40 + x44 + x48 <= 3
c97:  +4 x33 + x1 + x2 + x3 + x5 + x9 + x13 + x17 + x18 + x19 + x21 + x25 + x29 + x32 + x34 + x35 + x36 + x37 + x40 + x41 + x44 + x45 + x48 + x49 <= 4
c98:  +6 x34 + x2 + x3 + x6 + x10 + x14 + x18 + x19 + x22 + x26 + x30 + x32 + x33 + x35 + x36 + x37 + x38 + x40 + x41 + x42 + x44 + x45 + x46 + x48 + x49 + x50 <= 6
c99:  +7 x35 + x3 + x7 + x11 + x15 + x19 + x23 + x27 + x31 + x32 + x33 + x34 + x36 + x37 + x38 + x39 + x40 + x41 + x42 + x43 + x44 + x45 + x46 + x47 + x48 + x49 + x50 + x51 <= 7
c100:  +4 x36 + x4 + x5 + x6 + x7 + x8 + x12 + x20 + x21 + x22 + x23 + x24 + x28 + x32 + x33 + x34 + x35 + x37 + x38 + x39 + x40 + x44 + x48 + x52 <= 4
c101:  +5 x37 + x5 + x6 + x7 + x9 + x13 + x21 + x22 + x23 + x25 + x29 + x33 + x34 + x35 + x36 + x38 + x39 + x40 + x41 + x44 + x45 + x49 + x52 + x53 <= 5
c102:  +6 x38 + x6 + x7 + x10 + x14 + x22 + x23 + x26 + x30 + x34 + x35 + x36 + x37 + x39 + x40 + x41 + x42 + x44 + x45 + x46 + x50 + x52 + x53 + x54 <= 6
c103:  +6 x39 + x7 + x11 + x15 + x23 + x27 + x31 + x35 + x36 + x37 + x38 + x40 + x41 + x42 + x43 + x44 + x45 + x46 + x47 + x51 + x52 + x53 + x54 + x55 <= 6
c104:  +6 x40 + x8 + x9 + x10 + x11 + x12 + x24 + x25 + x26 + x27 + x28 + x32 + x33 + x34 + x35 + x36 + x37 + x38 + x39 + x41 + x42 + x43 + x44 + x48 + x52 + x56 <= 6
c105:  +6 x41 + x9 + x10 + x11 + x13 + x25 + x26 + x27 + x29 + x33 + x34 + x35 + x37 + x38 + x39 + x40 + x42 + x43 + x44 + x45 + x49 + x53 + x56 + x57 <= 6
c106:  +5 x42 + x10 + x11 + x14 + x26 + x27 + x30 + x34 + x35 + x38 + x39 + x40 + x41 + x43 + x44 + x45 + x46 + x50 + x54 + x56 + x57 + x58 <= 5
c107:  +4 x43 + x11 + x15 + x27 + x31 + x35 + x39 + x40 + x41 + x42 + x44 + x45 + x46 + x47 + x51 + x55 + x56 + x57 + x58 + x59 <= 4
c108:  +7 x44 + x12 + x13 + x14 + x15 + x28 + x29 + x30 + x31 + x32 + x33 + x34 + x35 + x36 + x37 + x38 + x39 + x40 + x41 + x42 + x43 + x45 + x46 + x47 + x48 + x52 + x56 + x60 <= 7
c109:  +6 x45 + x13 + x14 + x15 + x29 + x30 + x31 + x33 + x34 + x35 + x37 + x38 + x39 + x41 + x42 + x43 + x44 + x46 + x47 + x49 + x53 + x57 + x60 + x61 <= 6
c110:  +4 x46 + x14 + x15 + x30 + x31 + x34 + x35 + x38 + x39 + x42 + x43 + x44 + x45 + x47 + x50 + x54 + x58 + x60 + x61 + x62 <= 4
c111:  +2 x47 + x15 + x31 + x35 + x39 + x43 + x44 + x45 + x46 + x51 + x55 + x59 + x60 + x61 + x62 + x63 <= 2
c112:  +4 x48 + x0 + x1 + x2 + x3 + x4 + x8 + x12 + x16 + x17 + x18 + x19 + x20 + x24 + x28 + x32 + x33 + x34 + x35 + x36 + x40 + x44 + x49 + x50 + x51 + x52 + x56 + x60 <= 4
c113:  +5 x49 + x1 + x2 + x3 + x5 + x9 + x13 + x17 + x18 + x19 + x21 + x25 + x29 + x33 + x34 + x35 + x37 + x41 + x45 + x48 + x50 + x51 + x52 + x53 + x56 + x57 + x60 + x61 <= 5
c114:  +6 x50 + x2 + x3 + x6 + x10 + x14 + x18 + x19 + x22 + x26 + x30 + x34 + x35 + x38 + x42 + x46 + x48 + x49 + x51 + x52 + x53 + x54 + x56 + x57 + x58 + x60 + x61 + x62 <= 6
c115:  +7 x51 + x3 + x7 + x11 + x15 + x19 + x23 + x27 + x31 + x35 + x39 + x43 + x47 + x48 + x49 + x50 + x52 + x53 + x54 + x55 + x56 + x57 + x58 + x59 + x60 + x61 + x62 + x63 <= 7
c116:  +5 x52 + x4 + x5 + x6 + x7 + x8 + x12 + x20 + x21 + x22 + x23 + x24 + x28 + x36 + x37 + x38 + x39 + x40 + x44 + x48 + x49 + x50 + x51 + x53 + x54 + x55 + x56 + x60 <= 5
c117:  +5 x53 + x5 + x6 + x7 + x9 + x13 + x21 + x22 + x23 + x25 + x29 + x37 + x38 + x39 + x41 + x45 + x49 + x50 + x51 + x52 + x54 + x55 + x56 + x57 + x60 + x61 <= 5
c118:  +6 x54 + x6 + x7 + x10 + x14 + x22 + x23 + x26 + x30 + x38 + x39 + x42 + x46 + x50 + x51 + x52 + x53 + x55 + x56 + x57 + x58 + x60 + x61 + x62 <= 6
c119:  +5 x55 + x7 + x11 + x15 + x23 + x27 + x31 + x39 + x43 + x47 + x51 + x52 + x53 + x54 + x56 + x57 + x58 + x59 + x60 + x61 + x62 + x63 <= 5
c120:  +6 x56 + x8 + x9 + x10 + x11 + x12 + x24 + x25 + x26 + x27 + x28 + x40 + x41 + x42 + x43 + x44 + x48 + x49 + x50 + x51 + x52 + x53 + x54 + x55 + x57 + x58 + x59 + x60 <= 6
c121:  +6 x57 + x9 + x10 + x11 + x13 + x25 + x26 + x27 + x29 + x41 + x42 + x43 + x45 + x49 + x50 + x51 + x53 + x54 + x55 + x56 + x58 + x59 + x60 + x61 <= 6
c122:  +5 x58 + x10 + x11 + x14 + x26 + x27 + x30 + x42 + x43 + x46 + x50 + x51 + x54 + x55 + x56 + x57 + x59 + x60 + x61 + x62 <= 5
c123:  +3 x59 + x11 + x15 + x27 + x31 + x43 + x47 + x51 + x55 + x56 + x57 + x58 + x60 + x61 + x62 + x63 <= 3
c124:  +7 x60 + x12 + x13 + x14 + x15 + x28 + x29 + x30 + x31 + x44 + x45 + x46 + x47 + x48 + x49 + x50 + x51 + x52 + x53 + x54 + x55 + x56 + x57 + x58 + x59 + x61 + x62 + x63 <= 7
c125:  +5 x61 + x13 + x14 + x15 + x29 + x30 + x31 + x45 + x46 + x47 + x49 + x50 + x51 + x53 + x54 + x55 + x57 + x58 + x59 + x60 + x62 + x63 <= 5
c126:  +3 x62 + x14 + x15 + x30 + x31 + x46 + x47 + x50 + x51 + x54 + x55 + x58 + x59 + x60 + x61 + x63 <= 3
c127:  +1 x63 + x15 + x31 + x47 + x51 + x55 + x59 + x60 + x61 + x62 <= 1



Binary
x0
x1
x2
x3
x4
x5
x6
x7
x8
x9
x10
x11
x12
x13
x14
x15
x16
x17
x18
x19
x20
x21
x22
x23
x24
x25
x26
x27
x28
x29
x30
x31
x32
x33
x34
x35
x36
x37
x38
x39
x40
x41
x42
x43
x44
x45
x46
x47
x48
x49
x50
x51
x52
x53
x54
x55
x56
x57
x58
x59
x60
x61
x62
x63


End